(set-logic ALL)
(declare-const word_VAR String)
(assert (< 0 (str.len (str.replaceall (str.replaceall (str.replaceall (str.replaceall (str.replaceall (str.replaceall (str.replaceall (str.replaceall (str.replaceall (str.replaceall (str.replaceall (str.replaceall (str.replaceall (str.replaceall (str.replaceall (str.replaceall (str.replaceall (str.replaceall (str.replaceall (str.replaceall (str.replaceall (str.replaceall (str.replaceall (str.replaceall (str.replaceall (str.replaceall word_VAR "a" "A") "b" "B") "c" "C") "d" "D") "e" "E") "f" "F") "g" "G") "h" "H") "i" "I") "j" "J") "k" "K") "l" "L") "m" "M") "n" "N") "o" "O") "p" "P") "q" "Q") "r" "R") "s" "S") "t" "T") "u" "U") "v" "V") "w" "W") "x" "X") "y" "Y") "z" "Z"))))
(check-sat)
(get-value (word_VAR))
